108

Ar 2.90555367 2.85019400 2.85961010
Ar 2.91455625 0.00247182 5.70099673
Ar 5.76866936 17.11413115 2.85361928
Ar 5.77020068 2.85227401 5.70453126
Ar 8.62024328 2.84753953 2.85652038
Ar 8.61117711 0.00497250 5.71094602
Ar 11.46808484 17.11519672 2.84665614
Ar 11.47217858 2.85018423 5.70006153
Ar 14.31765595 2.84981357 2.85894178
Ar 14.32383444 17.11197418 5.70392928
Ar 0.05006053 0.00430923 2.85062552
Ar 0.06177637 2.84778170 5.70538691
Ar 2.91513661 8.55485951 2.85079299
Ar 2.90301756 5.70587209 5.70194946
Ar 5.76226371 5.70625543 2.84548966
Ar 5.76381891 8.55188234 5.70719481
Ar 8.61657898 8.56470636 2.85956107
Ar 8.61260649 5.70312136 5.71304436
Ar 11.46816016 5.69992071 2.84909013
Ar 11.47588081 8.56353838 5.70570058
Ar 14.32141854 8.55183852 2.85418780
Ar 14.31647440 5.70515491 5.71199464
Ar 0.06162988 5.70356587 2.84839531
Ar 0.05974340 8.55636693 5.70031060
Ar 2.91520416 14.27133282 2.85489897
Ar 2.90371422 11.41797015 5.70881809
Ar 5.76811057 11.40722976 2.85258033
Ar 5.75548035 14.26469633 5.70337267
Ar 8.62255540 14.26600263 2.85759480
Ar 8.62334756 11.41056973 5.70739380
Ar 11.46232876 11.40993758 2.85022302
Ar 11.47027620 14.27330026 5.70354467
Ar 14.33004885 14.26537765 2.85282006
Ar 14.31647538 11.41843515 5.70608048
Ar 0.05957650 11.40836167 2.85903360
Ar 0.05227065 14.25998372 5.70980624
Ar 2.90959552 2.85787935 8.55326327
Ar 2.91713682 17.11851940 11.41474023
Ar 5.76580957 0.00213089 8.55278933
Ar 5.76990552 2.85345101 11.40983500
Ar 8.60924383 2.85389971 8.55531704
Ar 8.62103792 17.11342551 11.41175034
Ar 11.47014522 0.00537017 8.56568598
Ar 11.46354349 2.85562848 11.41831609
Ar 14.32253067 2.85629791 8.55242111
Ar 14.31825239 17.11404013 11.40843608
Ar 0.06267291 0.00230567 8.55564450
Ar 0.06212241 2.84805324 11.41226752
Ar 2.90501848 8.56399453 8.56484169
Ar 2.91605253 5.70383801 11.41643238
Ar 5.76514413 5.70295136 8.56641847
Ar 5.75939795 8.55765610 11.41995145
Ar 8.61819248 8.56022214 8.56735323
Ar 8.61849106 5.69955538 11.41029649
Ar 11.46423785 5.70114290 8.55637018
Ar 11.47319976 8.56519316 11.41688875
Ar 14.32914264 8.56303697 8.55796745
Ar 14.32045984 5.70208720 11.40660900
Ar 0.05285433 5.71369967 8.55919207
Ar 0.05054774 8.56184711 11.41810067
Ar 2.91528015 14.27109688 8.56172475
Ar 2.91179872 11.42046378 11.41240800
Ar 5.76537238 11.40658419 8.55583933
Ar 5.76497647 14.27071651 11.41898384
Ar 8.62173586 14.26988395 8.56344714
Ar 8.61940333 11.41784072 11.41804694
Ar 11.47572436 11.40877553 8.56055185
Ar 11.47445292 14.26856685 11.40778466
Ar 14.32149000 14.27312324 8.56342170
Ar 14.32635447 11.41701871 11.41832295
Ar 0.06206579 11.41705387 8.55633491
Ar 0.05016032 14.27101205 11.41158428
Ar 2.90240764 2.85081738 14.26341056
Ar 2.91371617 0.00480453 0.00506237
Ar 5.76377302 0.00150851 14.27390602
Ar 5.76280936 2.85109570 17.11172408
Ar 8.61208449 2.85261365 14.25916571
Ar 8.60810174 17.11728344 0.00063584
Ar 11.47631377 17.11889412 14.26918038
Ar 11.47142572 2.84630349 17.11660351
Ar 14.32100007 2.84887435 14.27262497
Ar 14.31799289 0.00692497 0.00064630
Ar 0.06095678 0.00628891 14.26800981
Ar 0.06081216 2.84869930 17.11480214
Ar 2.90674446 8.56231152 14.25913928
Ar 2.91107196 5.71170711 17.11353963
Ar 5.75781873 5.70422876 14.27207225
Ar 5.75783074 8.55336658 0.00047640
Ar 8.61518159 8.55384429 14.26083727
Ar 8.61186665 5.70293555 17.11343900
Ar 11.47641487 5.70664270 14.26337283
Ar 11.47459797 8.56427900 17.11607382
Ar 14.31866933 8.56679442 14.26711690
Ar 14.32186226 5.71266220 17.11429147
Ar 0.06093003 5.71068896 14.26127170
Ar 0.05904955 8.55462456 0.00566044
Ar 2.91680017 14.26536679 14.26329397
Ar 2.90626685 11.40632598 17.11617921
Ar 5.75658373 11.41511662 14.27085059
Ar 5.76649093 14.27108951 17.11454756
Ar 8.61137921 14.27016863 14.27135959
Ar 8.61617656 11.42018896 0.00338630
Ar 11.47086928 11.40822411 14.27229997
Ar 11.46182541 14.26680699 0.00364518
Ar 14.32837750 14.26895423 14.27018663
Ar 14.32407992 11.40727186 17.11407157
Ar 0.04935769 11.41143658 14.26985873
Ar 0.05707782 14.26367096 17.11181631
108

Ar 2.90087279 2.84720919 2.86602311
Ar 2.91885960 0.00493865 5.69563200
Ar 5.77390459 17.10917159 2.85405433
Ar 5.77695669 2.85137066 5.70269364
Ar 8.62386662 2.84190159 2.85984844
Ar 8.60575181 0.00993498 5.71551922
Ar 11.46637329 17.11129673 2.84013783
Ar 11.47455249 2.84718230 5.69376584
Ar 14.31234090 2.84645118 2.86468970
Ar 14.32468673 17.10485768 5.70149610
Ar 0.04306682 0.00860864 2.84806963
Ar 0.06647654 2.84238933 5.70440782
Ar 2.92002132 8.55017534 2.84840761
Ar 2.89580193 5.70537741 5.69753984
Ar 5.76109979 5.70613686 2.83780516
Ar 5.76420318 8.54422184 5.70802567
Ar 8.61654595 8.56984819 2.86592736
Ar 8.60860736 5.69988162 5.71971072
Ar 11.46652012 5.69348402 2.84500009
Ar 11.48195493 8.56751613 5.70503718
Ar 14.31985832 8.54413649 2.85519174
Ar 14.30997988 5.70394348 5.71761160
Ar 0.06618530 5.70076142 2.84361189
Ar 0.06241646 8.55318916 5.69426016
Ar 2.92015012 14.27673989 2.85660694
Ar 2.89719428 11.42319631 5.71126458
Ar 5.77278243 11.40173517 2.85197860
Ar 5.74754783 14.26347431 5.70038429
Ar 8.62848389 14.26608953 2.86200491
Ar 8.63007398 11.40841150 5.70842543
Ar 11.45487685 11.40714825 2.84726523
Ar 11.47075499 14.28067703 5.70072908
Ar 14.33710536 14.26483543 2.85244916
Ar 14.30997915 11.42413051 5.70579319
Ar 0.06208597 11.40399375 2.86487324
Ar 0.04748736 14.25406481 5.71324154
Ar 2.90894925 2.86257046 8.54698359
Ar 2.92402238 17.11794230 11.41674258
Ar 5.76818496 0.00425996 8.54603852
Ar 5.77637011 2.85371225 11.40694236
Ar 8.60188789 2.85461107 8.55109104
Ar 8.62545592 17.10776060 11.41077165
Ar 11.47049128 0.01074132 8.57180958
Ar 11.45729881 2.85806655 11.42389000
Ar 14.32208253 2.85940321 8.54530081
Ar 14.31353319 17.10899639 11.40414671
Ar 0.06827734 0.00460821 8.55174221
Ar 0.06717108 2.84292975 11.41179772
Ar 2.89979573 8.56843100 8.57012905
Ar 2.92184794 5.70131140 11.42012503
Ar 5.76685104 5.69954374 8.57327780
Ar 5.75537201 8.55576558 11.42716238
Ar 8.61977149 8.56089175 8.57515090
Ar 8.62036546 5.69275551 11.40786549
Ar 11.45868436 5.69592752 8.55319543
Ar 11.47660169 8.57082672 11.42103710
Ar 14.33529732 8.56652272 8.55638763
Ar 14.31794180 5.69781229 11.40049314
Ar 0.04865278 5.72102205 8.55883600
Ar 0.04403945 8.56414533 11.42346085
Ar 2.92030876 14.27627414 8.56389742
Ar 2.91334445 11.42818884 11.41208390
Ar 5.76731403 11.40044554 8.55213615
Ar 5.76652589 14.27551161 11.42522481
Ar 8.62685100 14.27384377 8.56733539
Ar 8.62218829 11.42294511 11.42335853
Ar 11.48164694 11.40482767 8.56155507
Ar 11.47910453 14.27120971 11.40285146
Ar 14.32000113 14.28031971 8.56728541
Ar 14.32972434 11.42130399 11.42390515
Ar 0.06705692 11.42137198 8.55312705
Ar 0.04327055 14.27610530 11.41043902
Ar 2.89458426 2.84845518 14.26090662
Ar 2.91718142 0.00960124 0.01011983
Ar 5.76411336 0.00301954 14.28188110
Ar 5.76218466 2.84901059 17.10436231
Ar 8.60756358 2.85204120 14.25242474
Ar 8.59960359 17.11547215 0.00127055
Ar 11.48281664 17.11868482 14.27243975
Ar 11.47304529 2.83943379 17.11410827
Ar 14.31902759 2.84457297 14.27931888
Ar 14.31301476 0.01383610 0.00129447
Ar 0.06484479 0.01256535 14.27009927
Ar 0.06455326 2.84422790 17.11051205
Ar 2.90324231 8.56507254 14.25237011
Ar 2.91189291 5.71703404 17.10798370
Ar 5.75221148 5.70209010 14.27821499
Ar 5.75224152 8.54719449 0.00094761
Ar 8.61374935 8.54814578 14.25576708
Ar 8.60713041 5.69950705 17.10778412
Ar 11.48302293 5.70691821 14.26083268
Ar 11.47938476 8.56899831 17.11305324
Ar 14.31436760 8.57402558 14.26831377
Ar 14.32074876 5.71894426 17.10948826
Ar 0.06478583 5.71500515 14.25663092
Ar 0.06103199 8.54970525 0.01131185
Ar 2.92333965 14.26482138 14.26067732
Ar 2.90229148 11.39992759 17.11326510
Ar 5.74974885 11.41749451 14.27578104
Ar 5.76954404 14.27625246 17.11000800
Ar 8.60615607 14.27441642 14.27679464
Ar 8.61573468 11.42763037 0.00676537
Ar 11.47193766 11.40373067 14.27867564
Ar 11.45386817 14.26769607 0.00728529
Ar 14.33376327 14.27199092 14.27445427
Ar 14.32517854 11.40181862 17.10905844
Ar 0.04166567 11.41014205 14.27379405
Ar 0.05709662 14.26143139 17.10454487
108

Ar 2.89621673 2.84423336 2.87240866
Ar 2.92315145 0.00739564 5.69027807
Ar 5.77913229 17.10423051 2.85448778
Ar 5.78368351 2.85047921 5.70085134
Ar 8.62747756 2.83627525 2.86315858
Ar 8.60034945 0.01487704 5.72007992
Ar 11.46466314 17.10740359 2.83363728
Ar 11.47691091 2.84417463 5.68748938
Ar 14.30704441 2.84310316 2.87041686
Ar 14.32553553 17.09776003 5.69907133
Ar 0.03609203 0.01288876 2.84551734
Ar 0.07115146 2.83701525 5.70343010
Ar 2.92489600 8.54550381 2.84603216
Ar 2.88861360 5.70488251 5.69314515
Ar 5.75994127 5.70600348 2.83013904
Ar 5.76457898 8.53657526 5.70886184
Ar 8.61651610 8.57496092 2.87227115
Ar 8.60462413 5.69665302 5.72635444
Ar 11.46487393 5.68706568 2.84091612
Ar 11.48800988 8.57147292 5.70437922
Ar 14.31830131 8.53645306 2.85619452
Ar 14.30350772 5.70273312 5.72320662
Ar 0.07071944 5.69794973 2.83883733
Ar 0.06507636 8.55002170 5.68822104
Ar 2.92507366 14.28212895 2.85829949
Ar 2.89070007 11.42840144 5.71370138
Ar 5.77743758 11.39625847 2.85137954
Ar 5.73965000 14.26224904 5.69740715
Ar 8.63438564 14.26617829 2.86641243
Ar 8.63678565 11.40626403 5.70946620
Ar 11.44745764 11.40437165 2.84431253
Ar 11.47123287 14.28804021 5.69792636
Ar 14.34413809 14.26428696 2.85206311
Ar 14.30350020 11.42981330 5.70550364
Ar 0.06458862 11.39963320 2.87069165
Ar 0.04272310 14.24817396 5.71666837
Ar 2.90831343 2.86725189 8.54071790
Ar 2.93089939 17.11737223 11.41873600
Ar 5.77055225 0.00638529 8.53930765
Ar 5.78281334 2.85396044 11.40406104
Ar 8.59456008 2.85531238 8.54687933
Ar 8.62986146 17.10211499 11.40980180
Ar 11.47083289 0.01611455 8.57790824
Ar 11.45107192 2.86049023 11.42944634
Ar 14.32163756 2.86248985 8.53819743
Ar 14.30883156 17.10398526 11.39987359
Ar 0.07387217 0.00690432 8.54784632
Ar 0.07219981 2.83781940 11.41131974
Ar 2.89458434 8.57285159 8.57540801
Ar 2.92762341 5.69878862 11.42380496
Ar 5.76854450 5.69615163 8.58011897
Ar 5.75135888 8.55388178 11.43435879
Ar 8.62135090 8.56155625 8.58293766
Ar 8.62223394 5.68597874 11.40544596
Ar 11.45314196 5.69072827 8.55003070
Ar 11.48000196 8.57644140 11.42517152
Ar 14.34143697 8.57000642 8.55481312
Ar 14.31542855 5.69354645 11.39439382
Ar 0.04446682 5.72832328 8.55848347
Ar 0.03754605 8.56644577 11.42880661
Ar 2.92532830 14.28144548 8.56606597
Ar 2.91487852 11.43590312 11.41176206
Ar 5.76925467 11.39432741 8.54844750
Ar 5.76808199 14.28029735 11.43144696
Ar 8.63195239 14.27778873 8.57120596
Ar 8.62496412 11.42804363 11.42866616
Ar 11.48755988 11.40089953 8.56256128
Ar 11.48374742 14.27383777 11.39794879
Ar 14.31851526 14.28749569 8.57113254
Ar 14.33308540 11.42558915 11.42947249
Ar 0.07202596 11.42568516 8.54993414
Ar 0.03640805 14.28119433 11.40930123
Ar 2.88679332 2.84610080 14.25840727
Ar 2.92063889 0.01438240 0.01516761
Ar 5.76444859 0.00453545 14.28982711
Ar 5.76155261 2.84693089 17.09702876
Ar 8.60305896 2.85146318 14.24570403
Ar 8.59113358 17.11367166 0.00190338
Ar 11.48929167 17.11846837 14.27569005
Ar 11.47464613 2.83258476 17.11161587
Ar 14.31707061 2.84028701 14.28598401
Ar 14.30805574 0.02071921 0.00194670
Ar 0.06872240 0.01881626 14.27218134
Ar 0.06827982 2.83978180 17.10623768
Ar 2.89974088 8.56783260 14.24561755
Ar 2.91270537 5.72233397 17.10243660
Ar 5.74661298 5.69995005 14.28433181
Ar 5.74667302 8.54104531 0.00140823
Ar 8.61231703 8.54246119 14.25071487
Ar 8.60241549 5.69608340 17.10214119
Ar 11.48961145 5.70719286 14.25829980
Ar 11.48414337 8.57369808 17.11004410
Ar 14.31008457 8.58122991 14.26950378
Ar 14.31964431 5.72519981 17.10469544
Ar 0.06862075 5.71930912 14.25199861
Ar 0.06300748 8.54479840 0.01694522
Ar 2.92985170 14.26428516 14.25807294
Ar 2.89832527 11.39354666 17.11036416
Ar 5.74293747 11.41986148 14.28070449
Ar 5.77258179 14.28139560 17.10549437
Ar 8.60095540 14.27865587 14.28221385
Ar 8.61528327 11.43504385 0.01013012
Ar 11.47299793 11.39926878 14.28503597
Ar 11.44593944 14.26858277 0.01091495
Ar 14.33912625 14.27502602 14.27871701
Ar 14.32627539 11.39638209 17.10407621
Ar 0.03400176 11.40885166 14.27771587
Ar 0.05712488 14.25920403 17.09729788
